NAME: pr144
COMMENT: Quick (5min) local search tour for pr144 (61243.80487348169)
TYPE: TOUR
DIMENSION: 144
TOUR_SECTION: 1 2 34 33 32 31 114 113 112 111 144 143 142 141 140 139 138 137 136 135 134 133 132 131 115 130 129 128 127 126 125 124 123 122 121 120 119 118 117 116 92 91 73 74 75 76 77 78 89 90 94 93 95 96 97 98 99 100 101 102 103 88 87 104 105 106 107 108 109 110 86 85 79 80 81 82 84 83 49 50 51 52 53 54 55 56 57 58 60 59 48 47 46 61 62 63 64 65 66 67 68 69 70 72 71 45 44 43 14 13 12 11 10 9 7 8 19 20 16 15 42 41 17 18 21 40 39 38 37 23 22 24 25 36 35 26 27 30 29 28 6 5 4 3 -1
EOF